# Objective value = 296.189270138821
x[0] 1
x[1] 1
x[2] 0
x[3] 1
x[4] 1
x[5] 1
x[6] 1
x[7] 0
x[8] 1
x[9] 0
x[10] 1
x[11] 0
x[12] 6.0138850092519932e-08
x[13] 6.0140169666535876e-08
x[14] 1
x[15] 0
x[16] 0
x[17] 1
x[18] 1
x[19] 1
x[20] 9.9999994475318155e-01
x[21] 1
x[22] 0
x[23] 0
x[24] 1
x[25] 0
x[26] 1.0000003711978538e+00
x[27] 9.9999988585609290e-01
x[28] 9.9999994475318155e-01
x[29] 0
x[30] 0
x[31] 0.999999943086515
x[32] 0
x[33] 1
x[34] 0
x[35] 1
x[36] 0
x[37] 1
x[38] 0
x[39] 1
x[40] 0
x[41] 1
x[42] 1
x[43] 0
x[44] 0
x[45] 1
x[46] 1
x[47] 0
x[48] 0
x[49] 1
x[50] 9.9999988918942628e-01
x[51] 0
x[52] 0
x[53] 0
x[54] 0
x[55] 9.9999989004654410e-01
x[56] -2.53794628255943e-07
x[57] 0
x[58] 0.999999943086515
x[59] 0
x[60] 1
x[61] 0
x[62] 1
x[63] 0
x[64] 0
x[65] 0
x[66] 0
x[67] 0
x[68] 1
x[69] 0
x[70] 0
x[71] 0
x[72] 1
x[73] 1
x[74] 0
x[75] 0
x[76] 0
x[77] 1
x[78] 0
x[79] 1
x[80] 0
x[81] 0
x[82] 0
x[83] 9.9999977171218579e-01
x[84] 0
x[85] 1
x[86] 0
x[87] 1
x[88] 1
x[89] 0
x[90] 9.9999977671218576e-01
x[91] 0
x[92] 1
x[93] 1
x[94] 1
x[95] 1.1401216430443906e-07
x[96] 0
x[97] 0
x[98] 0
x[99] 0
x[100] 0
x[101] 1
x[102] 1
x[103] 1.1403206690251609e-07
x[104] 1
x[105] 0
x[106] 0
x[107] 9.9999956131851564e-01
x[108] 0
x[109] 0
x[110] 0
x[111] 0
x[112] 9.9999977504551918e-01
x[113] 1
x[114] 0
x[115] 1.1405504330307447e-07
x[116] 0
x[117] 1
x[118] 0
x[119] 0
x[120] 1
x[121] 0
x[122] 1
x[123] 0
x[124] 1
x[125] 1.6788225868050942e-07
x[126] 0
x[127] 0
x[128] 1
x[129] 0
x[130] 9.9999956631851561e-01
x[131] 2.2793408112423828e-07
x[132] 0
x[133] 0
x[134] 0
x[135] 1
x[136] 0
x[137] 1
x[138] 1
x[139] 1
x[140] 1
x[141] 0
x[142] 0
x[143] 0
x[144] 1
x[145] 1
x[146] 0
x[147] 0
x[148] 0
x[149] 0
x[150] 0
x[151] 0
x[152] 1
x[153] 1
x[154] 1
x[155] 0
x[156] 1
x[157] 1
x[158] 1
x[159] 1
x[160] 0
x[161] 0
x[162] 0
x[163] 0
x[164] 9.9999948752364531e-01
x[165] 1
x[166] 1
x[167] 1
x[168] 0
x[169] 1
x[170] 1
x[171] 1.2012456522608594e-07
x[172] 0
x[173] 0
x[174] 1
x[175] 0
x[176] 0
x[177] 0
x[178] 1
x[179] 1
x[180] 1.1408108275283844e-07
x[181] 1
x[182] 2.2817113996686438e-07
x[183] 0
x[184] 0
x[185] 0
x[186] 1
x[187] 0
x[188] 1
x[189] 0
x[190] 1
x[191] 9.9999954675770508e-01
x[192] 0
x[193] 1
x[194] 0
x[195] 0
x[196] 1
x[197] 9.9999943428046456e-01
x[198] 0
x[199] 4.5651793452302372e-07
x[200] 1.0000002564852950e+00
x[201] 0
x[202] 0
x[203] 1
x[204] 1.1408620174096752e-07
x[205] 0
x[206] 0
x[207] 9.9999988925225058e-01
x[208] 1
x[209] 1
x[210] 1
x[211] 1
x[212] 1.1017712715439082e-07
x[213] 0
x[214] 0
x[215] 0
x[216] 1.0000004000155380e+00
x[217] 1
x[218] 1
x[219] 9.9999981844647734e-01
x[220] 1
x[221] 1
x[222] 1
x[223] 1.8149851703604334e-07
x[224] 0
x[225] 1
x[226] 0
x[227] 0
x[228] 0
x[229] 0.999999943086515
x[230] 9.9999994475318155e-01
x[231] 0
x[232] 0
x[233] 4.5651977250368643e-07
x[234] 4.5650614396540912e-07
x[235] 1
x[236] 1
x[237] 1
x[238] 1
x[239] 1
x[240] 1
x[241] 0
x[242] -2.5212796158927631e-07
x[243] 0
x[244] 1
x[245] 1
x[246] 0
x[247] 0
x[248] 0
x[249] 0
x[250] 0
x[251] 0
x[252] 0
x[253] 9.9999993975318158e-01
x[254] 1
x[255] 1.1403863502169030e-07
x[256] 0
x[257] 1
x[258] 0
x[259] 0
x[260] 1.1406500517979554e-07
x[261] 1
x[262] 0
x[263] 1
x[264] 0
x[265] 1
x[266] 5.9672819714731059e-08
x[267] 0
x[268] 0
x[269] 1.1408694827140481e-07
x[270] 0
x[271] 1
x[272] 1
x[273] 0
x[274] 0
x[275] 0
x[276] 1
x[277] 6.01888505362578e-08
x[278] 9.9999954675770508e-01
x[279] 0
x[280] 9.9999988918942639e-01
x[281] 9.9999988585609290e-01
x[282] 1
x[283] 1
x[284] 1
x[285] 1
x[286] 1
x[287] 1
x[288] 0
x[289] 1
x[290] 0
x[291] 0
x[292] 1.1406539663846988e-07
x[293] 2.2823473592304928e-07
x[294] 1
x[295] 0
x[296] 0
x[297] 0
x[298] 9.9999977504551918e-01
x[299] 1
x[300] 1
x[301] 9.9999988107200910e-01
x[302] 1
x[303] 0
x[304] 1
x[305] 1
x[306] 0
x[307] 0
x[308] 0
x[309] 1
x[310] 0
x[311] 9.9999956631851561e-01
x[312] 0
x[313] 1
x[314] 1
x[315] 0
x[316] 0
x[317] 1
x[318] 1
x[319] 0
x[320] 0
x[321] 1
x[322] 1
x[323] 1
x[324] 1.0000002569864144e+00
x[325] 0
x[326] 0
x[327] 0
x[328] 1
x[329] 1
x[330] 1
x[331] 0
x[332] 1
x[333] 0
x[334] 1
x[335] 9.9999989085609287e-01
x[336] 1
x[337] 0
x[338] 1
x[339] 9.9999988828422670e-01
x[340] 1
x[341] 0
x[342] 1
x[343] 0.999999564651849
x[344] 1
x[345] 1
x[346] 2.2802304713731618e-07
x[347] 1
x[348] 0
x[349] 0
x[350] 1
x[351] 0
x[352] 0
x[353] 0
x[354] 0
x[355] 1
x[356] 0
x[357] 0
x[358] 0.999999943086515
x[359] 2.2821014084042644e-07
x[360] 1
x[361] 0
x[362] 0
x[363] 0
x[364] 0
x[365] 1
x[366] 0
x[367] 1
x[368] 0
x[369] 1
x[370] 1
x[371] 0.999999889830437
x[372] 0
x[373] 1
x[374] 1
x[375] 1
x[376] 1
x[377] 1
x[378] 1
x[379] 1
x[380] 0
x[381] 1
x[382] 1
x[383] 0
x[384] 0
x[385] 1
x[386] 1
x[387] 0
x[388] 0
x[389] 1
x[390] 5.9909116240415659e-08
x[391] 1
x[392] 1
x[393] 0
x[394] 0
x[395] 1
x[396] 1
x[397] 0
x[398] 1
x[399] 0
x[400] 6.0187796541612875e-08
x[401] 0
x[402] 0
x[403] 0
x[404] 0
x[405] 1
x[406] 1
x[407] 0
x[408] 0
x[409] 0
x[410] 1
x[411] 0
x[412] 0
x[413] 1
x[414] 0
x[415] 0
x[416] 0
x[417] 0
x[418] 1
x[419] 9.9999977504551918e-01
x[420] 0
x[421] 0
x[422] 1
x[423] 1
x[424] 0
x[425] 1
x[426] 1
x[427] 0
x[428] 1.0000002570590443e+00
x[429] 1
x[430] 1
x[431] 1
x[432] 0
x[433] 1
x[434] 1.1400226461253019e-07
x[435] 0
x[436] 0
x[437] 1
x[438] 0
x[439] 1
x[440] 1.0000002570489002e+00
x[441] -2.53794628255943e-07
x[442] 0
x[443] 9.9999989075507234e-01
x[444] 1
x[445] 0
x[446] 0
x[447] 0.999999885856093
x[448] 0
x[449] 1
x[450] 1
x[451] 1
x[452] 9.9999987950636293e-01
x[453] 0
x[454] 1
x[455] 0
x[456] 1
x[457] 0
x[458] 0
x[459] 1.0000002570632773e+00
x[460] 0
x[461] 1
x[462] 0
x[463] 1
x[464] 0
x[465] 1
x[466] 0
x[467] 1
x[468] 1
x[469] 0
x[470] 0
x[471] 1
x[472] 0
x[473] 1
x[474] 1
x[475] 0
x[476] 0
x[477] 0
x[478] 0
x[479] 1
x[480] 0
x[481] 1
x[482] 0
x[483] 1
x[484] 1
x[485] 1
x[486] 0
x[487] 1
x[488] 1
x[489] 0
x[490] 1.1404094617652758e-07
x[491] 0
x[492] 0
x[493] 0
x[494] 0
x[495] 1
x[496] 0
x[497] 1
x[498] 1
x[499] 0
x[500] 0
x[501] 0
x[502] 0
x[503] 1
x[504] 1
x[505] 1.0000002570238793e+00
x[506] 0
x[507] 0
x[508] 1
x[509] 1
x[510] 0
x[511] 0
x[512] 0
x[513] 0
x[514] 0
x[515] 1
x[516] 0
x[517] 0.999999885856093
x[518] 1
x[519] 2.2819049378304818e-07
x[520] 1
x[521] 1
x[522] 1
x[523] 0
x[524] 1
x[525] 1
x[526] 9.9999977171218579e-01
x[527] 9.9999994481220345e-01
x[528] 1
x[529] 1
x[530] 0
x[531] 1
x[532] 0
x[533] 1
x[534] 2.8456548780019694e-08
x[535] 0
x[536] 0
x[537] 0
x[538] 0
x[539] 0
x[540] 1
x[541] 0
x[542] 0
x[543] 1.0000002570487958e+00
x[544] 9.9999977671218576e-01
x[545] 1
x[546] 0
x[547] -2.5712796158927631e-07
x[548] 1
x[549] 1
x[550] 0
x[551] 2.2822875248224402e-07
x[552] 1
x[553] 1
x[554] 1
x[555] 1
x[556] -3.6637288896067217e-07
x[557] 1
x[558] 1
x[559] 1
x[560] 1
x[561] 1.1408588115938970e-07
x[562] 1
x[563] 0
x[564] 0
x[565] 0
x[566] 1
x[567] 1
x[568] 0
x[569] 1
x[570] 4.3857633803613745e-07
x[571] 1
x[572] 1
x[573] 0
x[574] 1.1400047618532068e-07
x[575] 0
x[576] 1
x[577] 0
x[578] 0
x[579] 1
x[580] 9.9999977671218576e-01
x[581] 0
x[582] 1
x[583] 1
x[584] 0
x[585] 0
x[586] 1
x[587] 0
x[588] 0
x[589] 1
x[590] 1
x[591] 0
x[592] 0
x[593] 1
x[594] 1
x[595] 0
x[596] 0
x[597] 0
x[598] 1
x[599] 9.9999954681356085e-01
x[600] 1
x[601] 1.1397340892796887e-07
x[602] 0
x[603] 9.9999977504551918e-01
x[604] 0
x[605] 1
x[606] 1
x[607] 0
x[608] 0
x[609] 0
x[610] 0
x[611] 1
x[612] 1
x[613] 1
x[614] 0
x[615] 0
x[616] 1
x[617] 1.1407678620133923e-07
x[618] 1
x[619] 1
x[620] 1
x[621] 1
x[622] 1
x[623] 1
x[624] 1
x[625] 1
x[626] 1
x[627] 0
x[628] 1
x[629] 1
x[630] 1
x[631] 1.8133317112346396e-07
x[632] 0
x[633] 1
x[634] 1
x[635] 0
x[636] 1
x[637] 0
x[638] 1
x[639] 0
x[640] 0
x[641] 0
x[642] 1
x[643] 0
x[644] 0
x[645] 0
x[646] 1
x[647] 0
x[648] 0
x[649] 1
x[650] 1
x[651] 1
x[652] 1
x[653] 0
x[654] 1
x[655] 1
x[656] 9.9999993975318158e-01
x[657] 0
x[658] 1
x[659] 0
x[660] 0.999999890856093
x[661] 0
x[662] 0
x[663] 1
x[664] 0
x[665] 0
x[666] 1
x[667] 0
x[668] 1
x[669] 1
x[670] 1
x[671] 1
x[672] 1
x[673] 1
x[674] 9.9999988918942628e-01
x[675] 0
x[676] 0
x[677] 1
x[678] 1
x[679] 1
x[680] 0
x[681] 0
x[682] 0
x[683] 1
x[684] 0
x[685] 0
x[686] 0
x[687] 0
x[688] 0
x[689] 1
x[690] 1
x[691] 1
x[692] 1
x[693] 1
x[694] 1
x[695] 1
x[696] 1
x[697] 9.9999987950636293e-01
x[698] 1
x[699] 1
x[700] 0
x[701] 0
x[702] 1
x[703] 0
x[704] 0
x[705] 1
x[706] 0
x[707] 1
x[708] 1
x[709] 1.1391867291803068e-07
x[710] 0
x[711] 0
x[712] 1
x[713] 1
x[714] 1
x[715] 0
x[716] 1
x[717] 1
x[718] 8.5174764566046176e-08
x[719] 1
x[720] -4.0011201596357182e-07
x[721] 0
x[722] 1
x[723] 0
x[724] 1
x[725] 1
x[726] 1
x[727] 1
x[728] 2.2821961257885653e-07
x[729] 6.01565344537554e-08
x[730] 0
x[731] 0
x[732] 0
x[733] 0
x[734] 1
x[735] 1
x[736] 0
x[737] 1
x[738] 9.9999981844647734e-01
x[739] 0.999999885856093
x[740] 1
x[741] 1
x[742] 0
x[743] 0
x[744] 1
x[745] -2.5712796165692364e-07
x[746] 1
x[747] 1.1406995163620378e-07
x[748] 1
x[749] 0
x[750] 9.9999988918942639e-01
x[751] 0
x[752] 1
x[753] 0
x[754] 1.1406094766478890e-07
x[755] 0
x[756] 0
x[757] 1
x[758] 1
x[759] 0.999999890856093
x[760] 1.0000002565979278e+00
x[761] 1
x[762] 0
x[763] 1.0000002569785815e+00
x[764] 1
x[765] 1
x[766] 2.2818536109238357e-07
x[767] 0
x[768] 1
x[769] 1
x[770] 9.9999988970764708e-01
x[771] 0
x[772] 9.9999991469624017e-01
x[773] 1.1404608733961572e-07
x[774] 1
x[775] 0
x[776] -2.5216429776800819e-07
x[777] 0
x[778] 1
x[779] 9.9999956631851561e-01
x[780] 0
x[781] 9.9999994314448282e-01
x[782] 1.0000002566238637e+00
x[783] 0
x[784] 9.9999997146402309e-01
x[785] 0
x[786] 1
x[787] 1
x[788] 1
x[789] 1
x[790] 1
x[791] 1
x[792] 1
x[793] 0
x[794] 1.0000005139499211e+00
x[795] 0
x[796] 1
x[797] 1
x[798] 1
x[799] 0
x[800] 1
x[801] 1
x[802] 1
x[803] 1
x[804] 1
x[805] 1.1407251224636450e-07
x[806] 1
x[807] 1
x[808] 0
x[809] 0
x[810] 1.8148413722327379e-07
x[811] 0
x[812] 0
x[813] 1
x[814] 1
x[815] 0
x[816] 1
x[817] 0
x[818] 1
x[819] -2.5344575248370428e-07
x[820] 0
x[821] 1
x[822] 0
x[823] 0
x[824] 0
x[825] 0
x[826] 1
x[827] 0
x[828] 0
x[829] 0
x[830] 1
x[831] 1
x[832] 0
x[833] 0
x[834] 0
x[835] 0
x[836] 0
x[837] 1
x[838] 1
x[839] 4.5638815857178722e-07
x[840] 0
x[841] 1
x[842] 4.3858886668936208e-07
x[843] 0
x[844] 0
x[845] 0
x[846] 1
x[847] 0.999999885856093
x[848] 1
x[849] 0
x[850] 0
x[851] 1
x[852] -2.5712796158927631e-07
x[853] 0
x[854] 1
x[855] 1
x[856] 0
x[857] 1
x[858] 4.36734676871251e-07
x[859] 0
x[860] 0
x[861] 1
x[862] 1
x[863] 0
x[864] 0
x[865] 0
x[866] 0
x[867] 1
x[868] 1
x[869] 1
x[870] 0
x[871] 1
x[872] 1
x[873] 6.0116394218901074e-08
x[874] 0
x[875] 0
x[876] 0
x[877] 1
x[878] 1
x[879] 1
x[880] 1
x[881] 1
x[882] 9.9999989085609287e-01
x[883] 1
x[884] 0
x[885] 0
x[886] 1
x[887] 9.9999977671218576e-01
x[888] 0
x[889] 1
x[890] 0
x[891] 0
x[892] 0
x[893] 1
x[894] 1
x[895] 1
x[896] 1
x[897] 2.2819777755543622e-07
x[898] 0
x[899] 1
x[900] 0
x[901] 0
x[902] 1
x[903] 4.5632493303268668e-07
x[904] 1
x[905] 1
x[906] 0
x[907] 1
x[908] 6.01285844136187e-08
x[909] 1
x[910] 1
x[911] 0
x[912] 0
x[913] 1.0000003712173198e+00
x[914] -2.5712796158927631e-07
x[915] 0
x[916] 1
x[917] 1
x[918] 0
x[919] 0
x[920] 0
x[921] 1
x[922] 1
x[923] 0
x[924] 0
x[925] 1
x[926] 0
x[927] 0
x[928] 1
x[929] 5.16738771902616e-07
x[930] 1
x[931] 1
x[932] 9.9999988585609290e-01
x[933] 1
x[934] 0
x[935] 4.3850293328909903e-07
x[936] 6.01741460630388e-08
x[937] 6.01118525684573e-08
x[938] 0
x[939] 0
x[940] 0
x[941] 1
x[942] 1
x[943] 0
x[944] 1
x[945] 1
x[946] 0
x[947] 1
x[948] -2.5712796158927631e-07
x[949] 1
x[950] 1.1408613012520621e-07
x[951] 0
x[952] 0
x[953] 0
x[954] 1
x[955] 0
x[956] 1
x[957] 0
x[958] 0
x[959] 0
x[960] 1
x[961] 1
x[962] 1
x[963] 0
x[964] 0
x[965] 9.9999954839283556e-01
x[966] 0
x[967] 0
x[968] 1
x[969] 1
x[970] 0
x[971] 0
x[972] 1
x[973] 0
x[974] 1
x[975] 1.1400199170825644e-07
x[976] 0
x[977] 1
x[978] 0
x[979] 1
x[980] 0
x[981] 1.2041729580412241e-07
x[982] 0
x[983] 0
x[984] 1
x[985] 1
x[986] 0
x[987] 0
x[988] 0
x[989] -3.7127186858221251e-07
x[990] 0
x[991] 0
x[992] 0
x[993] 0
x[994] 1
x[995] 0
x[996] 0
x[997] 9.9999988927238570e-01
x[998] 6.0170760699248323e-08
x[999] 0
